\ Model Staff Scheduling Problem with Skill Levels
\ LP format - for model browsing. Use MPS format to capture full model detail.
Minimize
  x[0,0] + x[0,1] + x[0,2] + x[1,0] + x[1,1] + x[1,2] + x[2,0] + x[2,1]
   + x[2,2] + x[3,0] + x[3,1] + x[3,2] + x[4,0] + x[4,1] + x[4,2] + x[5,0]
   + x[5,1] + x[5,2]
Subject To
 R0: x[0,0] <= 3.291622685767923
 R1: x[0,1] <= 1.500951660143723
 R2: x[0,2] <= 5.229149597222649
 R3: x[1,0] <= 2.106562979919954
 R4: x[1,1] <= 5.216989205627508
 R5: x[1,2] <= 3.329335562120328
 R6: x[2,0] <= 4.747313546450868
 R7: x[2,1] <= 5.389637754570144
 R8: x[2,2] <= 4.846932187029964
 R9: x[3,0] <= 2.369051974155839
 R10: x[3,1] <= 1.961148196380681
 R11: x[3,2] <= 0.3267386423709513
 R12: x[4,0] <= 3.598259939462769
 R13: x[4,1] <= 2.823575880410231
 R14: x[4,2] <= 4.627205709800144
 R15: x[5,0] <= 4.968787960685439
 R16: x[5,1] <= 2.52009229786385
 R17: x[5,2] <= 3.955496005164947
 R18: x[1,0] + x[1,1] + x[1,2] + x[2,0] + x[2,1] + x[2,2] + x[3,0] + x[3,1]
   + x[3,2] + x[5,0] + x[5,1] + x[5,2] >= 12.56145879363035
 R19: x[1,0] + x[1,1] + x[1,2] + x[2,0] + x[2,1] + x[2,2] + x[3,0] + x[3,1]
   + x[3,2] + x[5,0] + x[5,1] + x[5,2] >= 17.01247086918017
 R20: x[2,0] + x[2,1] + x[2,2] + x[3,0] + x[3,1] + x[3,2] + x[5,0] + x[5,1]
   + x[5,2] >= 5.922747097038756
 R21: x[2,0] + x[2,1] + x[2,2] >= 20.05302404648338
Bounds
End
